predicate array_int_element2d_nonshifted_flat(var int: idx1,var int: idx2,array [int] of var int: x,var int: c,int: numRows,int: offset1,int: offset2);
predicate fzn_all_different_int(array [int] of var int: x);
array [1..7] of int: X_INTRODUCED_26_ = [1,-1,-1,-1,-1,-1,-1];
array [1..196] of int: X_INTRODUCED_31_ = [0,20,24,33,33,43,56,63,61,71,79,86,94,102,20,0,18,34,43,50,66,72,68,79,86,93,100,108,24,18,0,16,28,34,50,55,50,62,68,75,82,90,33,34,16,0,16,19,34,40,34,46,52,59,66,74,33,43,28,16,0,10,23,30,28,38,46,53,61,69,43,50,34,19,10,0,16,22,18,29,36,44,51,59,56,66,50,34,23,16,0,8,11,16,24,32,40,48,63,72,55,40,30,22,8,0,8,8,16,24,32,40,61,68,50,34,28,18,11,8,0,11,18,25,33,41,71,79,62,46,38,29,16,8,11,0,8,16,24,32,79,86,68,52,46,36,24,16,18,8,0,8,16,24,86,93,75,59,53,44,32,24,25,16,8,0,8,16,94,100,82,66,61,51,40,32,33,24,16,8,0,8,102,108,90,74,69,59,48,40,41,32,24,16,8,0];
var 1..10: Depot:: output_var;
var {1,2,3,4,5,7,8,9,10}: X_INTRODUCED_1_;
var {2,3,4,5,7,8,9,10}: X_INTRODUCED_2_;
var {2,3,4,5,7,8,9,10}: X_INTRODUCED_3_;
var {2,3,4,5,7,8,9,10}: X_INTRODUCED_4_;
var {2,3,4,5,7,8,9,10}: X_INTRODUCED_5_;
var 2..10: X_INTRODUCED_7_;
var {2,3,4,5,7,8,9,10}: X_INTRODUCED_8_;
var {2,3,4,5,7,8,9,10}: X_INTRODUCED_9_;
var {2,3,4,5,7,8,9,10}: X_INTRODUCED_10_;
var {2,3,4,5,7,8,9,10}: X_INTRODUCED_11_;
var 0..474: ADist:: output_var:: is_defined_var;
var 0..474: BDist:: output_var:: is_defined_var;
var 0..474: objective:: computed_domain:: is_defined_var:: output_var;
var 0..79: X_INTRODUCED_30_ ::var_is_introduced :: is_defined_var;
var 0..79: X_INTRODUCED_32_ ::var_is_introduced :: is_defined_var;
var 0..79: X_INTRODUCED_33_ ::var_is_introduced :: is_defined_var;
var 0..79: X_INTRODUCED_34_ ::var_is_introduced :: is_defined_var;
var 0..79: X_INTRODUCED_35_ ::var_is_introduced :: is_defined_var;
var 0..79: X_INTRODUCED_36_ ::var_is_introduced :: is_defined_var;
var 0..79: X_INTRODUCED_37_ ::var_is_introduced :: is_defined_var;
var 0..79: X_INTRODUCED_38_ ::var_is_introduced :: is_defined_var;
var 0..79: X_INTRODUCED_39_ ::var_is_introduced :: is_defined_var;
var 0..79: X_INTRODUCED_40_ ::var_is_introduced :: is_defined_var;
var 0..79: X_INTRODUCED_41_ ::var_is_introduced :: is_defined_var;
var 0..79: X_INTRODUCED_42_ ::var_is_introduced :: is_defined_var;
var bool: X_INTRODUCED_58_ ::var_is_introduced :: is_defined_var;
var bool: X_INTRODUCED_59_ ::var_is_introduced :: is_defined_var;
var bool: X_INTRODUCED_60_ ::var_is_introduced :: is_defined_var;
var bool: X_INTRODUCED_61_ ::var_is_introduced :: is_defined_var;
var bool: X_INTRODUCED_62_ ::var_is_introduced :: is_defined_var;
var bool: X_INTRODUCED_64_ ::var_is_introduced :: is_defined_var;
var bool: X_INTRODUCED_65_ ::var_is_introduced :: is_defined_var;
var bool: X_INTRODUCED_66_ ::var_is_introduced :: is_defined_var;
var bool: X_INTRODUCED_67_ ::var_is_introduced :: is_defined_var;
var bool: X_INTRODUCED_68_ ::var_is_introduced :: is_defined_var;
var bool: X_INTRODUCED_71_ ::var_is_introduced :: is_defined_var;
var bool: X_INTRODUCED_72_ ::var_is_introduced :: is_defined_var;
var bool: X_INTRODUCED_73_ ::var_is_introduced :: is_defined_var;
var bool: X_INTRODUCED_74_ ::var_is_introduced :: is_defined_var;
var bool: X_INTRODUCED_75_ ::var_is_introduced :: is_defined_var;
var bool: X_INTRODUCED_77_ ::var_is_introduced :: is_defined_var;
var bool: X_INTRODUCED_78_ ::var_is_introduced :: is_defined_var;
var bool: X_INTRODUCED_79_ ::var_is_introduced :: is_defined_var;
var bool: X_INTRODUCED_80_ ::var_is_introduced :: is_defined_var;
var bool: X_INTRODUCED_81_ ::var_is_introduced :: is_defined_var;
var bool: X_INTRODUCED_84_ ::var_is_introduced :: is_defined_var;
var bool: X_INTRODUCED_85_ ::var_is_introduced :: is_defined_var;
var bool: X_INTRODUCED_86_ ::var_is_introduced :: is_defined_var;
var bool: X_INTRODUCED_87_ ::var_is_introduced :: is_defined_var;
var bool: X_INTRODUCED_88_ ::var_is_introduced :: is_defined_var;
var bool: X_INTRODUCED_90_ ::var_is_introduced :: is_defined_var;
var bool: X_INTRODUCED_91_ ::var_is_introduced :: is_defined_var;
var bool: X_INTRODUCED_92_ ::var_is_introduced :: is_defined_var;
var bool: X_INTRODUCED_93_ ::var_is_introduced :: is_defined_var;
var bool: X_INTRODUCED_94_ ::var_is_introduced :: is_defined_var;
var bool: X_INTRODUCED_97_ ::var_is_introduced :: is_defined_var;
var bool: X_INTRODUCED_98_ ::var_is_introduced :: is_defined_var;
var bool: X_INTRODUCED_99_ ::var_is_introduced :: is_defined_var;
var bool: X_INTRODUCED_100_ ::var_is_introduced :: is_defined_var;
var bool: X_INTRODUCED_101_ ::var_is_introduced :: is_defined_var;
var bool: X_INTRODUCED_103_ ::var_is_introduced :: is_defined_var;
var bool: X_INTRODUCED_104_ ::var_is_introduced :: is_defined_var;
var bool: X_INTRODUCED_105_ ::var_is_introduced :: is_defined_var;
var bool: X_INTRODUCED_106_ ::var_is_introduced :: is_defined_var;
var bool: X_INTRODUCED_107_ ::var_is_introduced :: is_defined_var;
var bool: X_INTRODUCED_123_ ::var_is_introduced :: is_defined_var;
var bool: X_INTRODUCED_124_ ::var_is_introduced :: is_defined_var;
var bool: X_INTRODUCED_125_ ::var_is_introduced :: is_defined_var;
var bool: X_INTRODUCED_126_ ::var_is_introduced :: is_defined_var;
var bool: X_INTRODUCED_127_ ::var_is_introduced :: is_defined_var;
var bool: X_INTRODUCED_129_ ::var_is_introduced :: is_defined_var;
var bool: X_INTRODUCED_130_ ::var_is_introduced :: is_defined_var;
var bool: X_INTRODUCED_131_ ::var_is_introduced :: is_defined_var;
var bool: X_INTRODUCED_132_ ::var_is_introduced :: is_defined_var;
var bool: X_INTRODUCED_133_ ::var_is_introduced :: is_defined_var;
var bool: X_INTRODUCED_136_ ::var_is_introduced :: is_defined_var;
var bool: X_INTRODUCED_137_ ::var_is_introduced :: is_defined_var;
var bool: X_INTRODUCED_138_ ::var_is_introduced :: is_defined_var;
var bool: X_INTRODUCED_139_ ::var_is_introduced :: is_defined_var;
var bool: X_INTRODUCED_140_ ::var_is_introduced :: is_defined_var;
var bool: X_INTRODUCED_142_ ::var_is_introduced :: is_defined_var;
var bool: X_INTRODUCED_143_ ::var_is_introduced :: is_defined_var;
var bool: X_INTRODUCED_144_ ::var_is_introduced :: is_defined_var;
var bool: X_INTRODUCED_145_ ::var_is_introduced :: is_defined_var;
var bool: X_INTRODUCED_146_ ::var_is_introduced :: is_defined_var;
var bool: X_INTRODUCED_149_ ::var_is_introduced :: is_defined_var;
var bool: X_INTRODUCED_150_ ::var_is_introduced :: is_defined_var;
var bool: X_INTRODUCED_151_ ::var_is_introduced :: is_defined_var;
var bool: X_INTRODUCED_152_ ::var_is_introduced :: is_defined_var;
var bool: X_INTRODUCED_153_ ::var_is_introduced :: is_defined_var;
var bool: X_INTRODUCED_155_ ::var_is_introduced :: is_defined_var;
var bool: X_INTRODUCED_156_ ::var_is_introduced :: is_defined_var;
var bool: X_INTRODUCED_157_ ::var_is_introduced :: is_defined_var;
var bool: X_INTRODUCED_158_ ::var_is_introduced :: is_defined_var;
var bool: X_INTRODUCED_159_ ::var_is_introduced :: is_defined_var;
var bool: X_INTRODUCED_162_ ::var_is_introduced :: is_defined_var;
var bool: X_INTRODUCED_163_ ::var_is_introduced :: is_defined_var;
var bool: X_INTRODUCED_164_ ::var_is_introduced :: is_defined_var;
var bool: X_INTRODUCED_165_ ::var_is_introduced :: is_defined_var;
var bool: X_INTRODUCED_166_ ::var_is_introduced :: is_defined_var;
var bool: X_INTRODUCED_168_ ::var_is_introduced :: is_defined_var;
var bool: X_INTRODUCED_169_ ::var_is_introduced :: is_defined_var;
var bool: X_INTRODUCED_170_ ::var_is_introduced :: is_defined_var;
var bool: X_INTRODUCED_171_ ::var_is_introduced :: is_defined_var;
var bool: X_INTRODUCED_172_ ::var_is_introduced :: is_defined_var;
var bool: X_INTRODUCED_176_ ::var_is_introduced :: is_defined_var;
var bool: X_INTRODUCED_177_ ::var_is_introduced :: is_defined_var;
var bool: X_INTRODUCED_178_ ::var_is_introduced :: is_defined_var;
var bool: X_INTRODUCED_181_ ::var_is_introduced :: is_defined_var;
var bool: X_INTRODUCED_182_ ::var_is_introduced :: is_defined_var;
var bool: X_INTRODUCED_185_ ::var_is_introduced :: is_defined_var;
var bool: X_INTRODUCED_186_ ::var_is_introduced :: is_defined_var;
var bool: X_INTRODUCED_189_ ::var_is_introduced :: is_defined_var;
var bool: X_INTRODUCED_190_ ::var_is_introduced :: is_defined_var;
var bool: X_INTRODUCED_193_ ::var_is_introduced :: is_defined_var;
var bool: X_INTRODUCED_194_ ::var_is_introduced :: is_defined_var;
var bool: X_INTRODUCED_196_ ::var_is_introduced :: is_defined_var;
var bool: X_INTRODUCED_197_ ::var_is_introduced :: is_defined_var;
var bool: X_INTRODUCED_198_ ::var_is_introduced :: is_defined_var;
var bool: X_INTRODUCED_201_ ::var_is_introduced :: is_defined_var;
var bool: X_INTRODUCED_202_ ::var_is_introduced :: is_defined_var;
var bool: X_INTRODUCED_205_ ::var_is_introduced :: is_defined_var;
var bool: X_INTRODUCED_206_ ::var_is_introduced :: is_defined_var;
var bool: X_INTRODUCED_209_ ::var_is_introduced :: is_defined_var;
var bool: X_INTRODUCED_210_ ::var_is_introduced :: is_defined_var;
var bool: X_INTRODUCED_213_ ::var_is_introduced :: is_defined_var;
var bool: X_INTRODUCED_214_ ::var_is_introduced :: is_defined_var;
array [1..6] of var int: TourALoc:: output_array([1..6]) = [1,X_INTRODUCED_1_,X_INTRODUCED_2_,X_INTRODUCED_3_,X_INTRODUCED_4_,X_INTRODUCED_5_];
array [1..6] of var int: TourBLoc:: output_array([1..6]) = [6,X_INTRODUCED_7_,X_INTRODUCED_8_,X_INTRODUCED_9_,X_INTRODUCED_10_,X_INTRODUCED_11_];
array [1..6] of var int: ALegDist:: output_array([1..6]) = [X_INTRODUCED_30_,X_INTRODUCED_32_,X_INTRODUCED_33_,X_INTRODUCED_34_,X_INTRODUCED_35_,X_INTRODUCED_36_];
array [1..6] of var int: BLegDist:: output_array([1..6]) = [X_INTRODUCED_37_,X_INTRODUCED_38_,X_INTRODUCED_39_,X_INTRODUCED_40_,X_INTRODUCED_41_,X_INTRODUCED_42_];
array [1..12] of var int: X_INTRODUCED_43_ ::var_is_introduced  = [1,X_INTRODUCED_1_,X_INTRODUCED_2_,X_INTRODUCED_3_,X_INTRODUCED_4_,X_INTRODUCED_5_,6,X_INTRODUCED_7_,X_INTRODUCED_8_,X_INTRODUCED_9_,X_INTRODUCED_10_,X_INTRODUCED_11_];
array [1..5] of var int: X_INTRODUCED_174_ ::var_is_introduced  = [X_INTRODUCED_1_,X_INTRODUCED_2_,X_INTRODUCED_3_,X_INTRODUCED_4_,X_INTRODUCED_5_];
array [1..5] of var int: X_INTRODUCED_175_ ::var_is_introduced  = [X_INTRODUCED_7_,X_INTRODUCED_8_,X_INTRODUCED_9_,X_INTRODUCED_10_,X_INTRODUCED_11_];
constraint int_lin_eq(X_INTRODUCED_26_,[ADist,X_INTRODUCED_30_,X_INTRODUCED_32_,X_INTRODUCED_33_,X_INTRODUCED_34_,X_INTRODUCED_35_,X_INTRODUCED_36_],0):: defines_var(ADist);
constraint int_lin_eq(X_INTRODUCED_26_,[BDist,X_INTRODUCED_37_,X_INTRODUCED_38_,X_INTRODUCED_39_,X_INTRODUCED_40_,X_INTRODUCED_41_,X_INTRODUCED_42_],0):: defines_var(BDist);
constraint int_max(ADist,BDist,objective):: defines_var(objective);
constraint array_int_element2d_nonshifted_flat(1,X_INTRODUCED_1_,X_INTRODUCED_31_,X_INTRODUCED_30_,14,1,1);
constraint array_int_element2d_nonshifted_flat(X_INTRODUCED_1_,X_INTRODUCED_2_,X_INTRODUCED_31_,X_INTRODUCED_32_,14,1,1);
constraint array_int_element2d_nonshifted_flat(X_INTRODUCED_2_,X_INTRODUCED_3_,X_INTRODUCED_31_,X_INTRODUCED_33_,14,1,1);
constraint array_int_element2d_nonshifted_flat(X_INTRODUCED_3_,X_INTRODUCED_4_,X_INTRODUCED_31_,X_INTRODUCED_34_,14,1,1);
constraint array_int_element2d_nonshifted_flat(X_INTRODUCED_4_,X_INTRODUCED_5_,X_INTRODUCED_31_,X_INTRODUCED_35_,14,1,1);
constraint array_int_element2d_nonshifted_flat(X_INTRODUCED_5_,1,X_INTRODUCED_31_,X_INTRODUCED_36_,14,1,1);
constraint array_int_element2d_nonshifted_flat(6,X_INTRODUCED_7_,X_INTRODUCED_31_,X_INTRODUCED_37_,14,1,1);
constraint array_int_element2d_nonshifted_flat(X_INTRODUCED_7_,X_INTRODUCED_8_,X_INTRODUCED_31_,X_INTRODUCED_38_,14,1,1);
constraint array_int_element2d_nonshifted_flat(X_INTRODUCED_8_,X_INTRODUCED_9_,X_INTRODUCED_31_,X_INTRODUCED_39_,14,1,1);
constraint array_int_element2d_nonshifted_flat(X_INTRODUCED_9_,X_INTRODUCED_10_,X_INTRODUCED_31_,X_INTRODUCED_40_,14,1,1);
constraint array_int_element2d_nonshifted_flat(X_INTRODUCED_10_,X_INTRODUCED_11_,X_INTRODUCED_31_,X_INTRODUCED_41_,14,1,1);
constraint array_int_element2d_nonshifted_flat(X_INTRODUCED_11_,6,X_INTRODUCED_31_,X_INTRODUCED_42_,14,1,1);
constraint bool_clause([X_INTRODUCED_58_,X_INTRODUCED_59_,X_INTRODUCED_60_,X_INTRODUCED_61_,X_INTRODUCED_62_,X_INTRODUCED_64_,X_INTRODUCED_65_,X_INTRODUCED_66_,X_INTRODUCED_67_,X_INTRODUCED_68_],[]);
constraint bool_clause([X_INTRODUCED_71_,X_INTRODUCED_72_,X_INTRODUCED_73_,X_INTRODUCED_74_,X_INTRODUCED_75_,X_INTRODUCED_77_,X_INTRODUCED_78_,X_INTRODUCED_79_,X_INTRODUCED_80_,X_INTRODUCED_81_],[]);
constraint bool_clause([X_INTRODUCED_84_,X_INTRODUCED_85_,X_INTRODUCED_86_,X_INTRODUCED_87_,X_INTRODUCED_88_,X_INTRODUCED_90_,X_INTRODUCED_91_,X_INTRODUCED_92_,X_INTRODUCED_93_,X_INTRODUCED_94_],[]);
constraint bool_clause([X_INTRODUCED_97_,X_INTRODUCED_98_,X_INTRODUCED_99_,X_INTRODUCED_100_,X_INTRODUCED_101_,X_INTRODUCED_103_,X_INTRODUCED_104_,X_INTRODUCED_105_,X_INTRODUCED_106_,X_INTRODUCED_107_],[]);
constraint bool_clause([X_INTRODUCED_123_,X_INTRODUCED_124_,X_INTRODUCED_125_,X_INTRODUCED_126_,X_INTRODUCED_127_,X_INTRODUCED_129_,X_INTRODUCED_130_,X_INTRODUCED_131_,X_INTRODUCED_132_,X_INTRODUCED_133_],[]);
constraint bool_clause([X_INTRODUCED_136_,X_INTRODUCED_137_,X_INTRODUCED_138_,X_INTRODUCED_139_,X_INTRODUCED_140_,X_INTRODUCED_142_,X_INTRODUCED_143_,X_INTRODUCED_144_,X_INTRODUCED_145_,X_INTRODUCED_146_],[]);
constraint bool_clause([X_INTRODUCED_149_,X_INTRODUCED_150_,X_INTRODUCED_151_,X_INTRODUCED_152_,X_INTRODUCED_153_,X_INTRODUCED_155_,X_INTRODUCED_156_,X_INTRODUCED_157_,X_INTRODUCED_158_,X_INTRODUCED_159_],[]);
constraint bool_clause([X_INTRODUCED_162_,X_INTRODUCED_163_,X_INTRODUCED_164_,X_INTRODUCED_165_,X_INTRODUCED_166_,X_INTRODUCED_168_,X_INTRODUCED_169_,X_INTRODUCED_170_,X_INTRODUCED_171_,X_INTRODUCED_172_],[]);
constraint fzn_all_different_int(X_INTRODUCED_174_);
constraint fzn_all_different_int(X_INTRODUCED_175_);
constraint bool_clause([X_INTRODUCED_176_,X_INTRODUCED_177_,X_INTRODUCED_178_],[]);
constraint bool_clause([X_INTRODUCED_176_,X_INTRODUCED_178_,X_INTRODUCED_181_,X_INTRODUCED_182_],[]);
constraint bool_clause([X_INTRODUCED_176_,X_INTRODUCED_178_,X_INTRODUCED_182_,X_INTRODUCED_185_,X_INTRODUCED_186_],[]);
constraint bool_clause([X_INTRODUCED_176_,X_INTRODUCED_178_,X_INTRODUCED_182_,X_INTRODUCED_186_,X_INTRODUCED_189_,X_INTRODUCED_190_],[]);
constraint bool_clause([X_INTRODUCED_176_,X_INTRODUCED_178_,X_INTRODUCED_182_,X_INTRODUCED_186_,X_INTRODUCED_190_,X_INTRODUCED_193_,X_INTRODUCED_194_],[]);
constraint bool_clause([X_INTRODUCED_196_,X_INTRODUCED_197_,X_INTRODUCED_198_],[]);
constraint bool_clause([X_INTRODUCED_196_,X_INTRODUCED_198_,X_INTRODUCED_201_,X_INTRODUCED_202_],[]);
constraint bool_clause([X_INTRODUCED_196_,X_INTRODUCED_198_,X_INTRODUCED_202_,X_INTRODUCED_205_,X_INTRODUCED_206_],[]);
constraint bool_clause([X_INTRODUCED_196_,X_INTRODUCED_198_,X_INTRODUCED_202_,X_INTRODUCED_206_,X_INTRODUCED_209_,X_INTRODUCED_210_],[]);
constraint bool_clause([X_INTRODUCED_196_,X_INTRODUCED_198_,X_INTRODUCED_202_,X_INTRODUCED_206_,X_INTRODUCED_210_,X_INTRODUCED_213_,X_INTRODUCED_214_],[]);
constraint int_eq_reif(X_INTRODUCED_1_,2,X_INTRODUCED_58_):: defines_var(X_INTRODUCED_58_);
constraint int_eq_reif(X_INTRODUCED_2_,2,X_INTRODUCED_59_):: defines_var(X_INTRODUCED_59_);
constraint int_eq_reif(X_INTRODUCED_3_,2,X_INTRODUCED_60_):: defines_var(X_INTRODUCED_60_);
constraint int_eq_reif(X_INTRODUCED_4_,2,X_INTRODUCED_61_):: defines_var(X_INTRODUCED_61_);
constraint int_eq_reif(X_INTRODUCED_5_,2,X_INTRODUCED_62_):: defines_var(X_INTRODUCED_62_);
constraint int_eq_reif(X_INTRODUCED_7_,2,X_INTRODUCED_64_):: defines_var(X_INTRODUCED_64_);
constraint int_eq_reif(X_INTRODUCED_8_,2,X_INTRODUCED_65_):: defines_var(X_INTRODUCED_65_);
constraint int_eq_reif(X_INTRODUCED_9_,2,X_INTRODUCED_66_):: defines_var(X_INTRODUCED_66_);
constraint int_eq_reif(X_INTRODUCED_10_,2,X_INTRODUCED_67_):: defines_var(X_INTRODUCED_67_);
constraint int_eq_reif(X_INTRODUCED_11_,2,X_INTRODUCED_68_):: defines_var(X_INTRODUCED_68_);
constraint int_eq_reif(X_INTRODUCED_1_,3,X_INTRODUCED_71_):: defines_var(X_INTRODUCED_71_);
constraint int_eq_reif(X_INTRODUCED_2_,3,X_INTRODUCED_72_):: defines_var(X_INTRODUCED_72_);
constraint int_eq_reif(X_INTRODUCED_3_,3,X_INTRODUCED_73_):: defines_var(X_INTRODUCED_73_);
constraint int_eq_reif(X_INTRODUCED_4_,3,X_INTRODUCED_74_):: defines_var(X_INTRODUCED_74_);
constraint int_eq_reif(X_INTRODUCED_5_,3,X_INTRODUCED_75_):: defines_var(X_INTRODUCED_75_);
constraint int_eq_reif(X_INTRODUCED_7_,3,X_INTRODUCED_77_):: defines_var(X_INTRODUCED_77_);
constraint int_eq_reif(X_INTRODUCED_8_,3,X_INTRODUCED_78_):: defines_var(X_INTRODUCED_78_);
constraint int_eq_reif(X_INTRODUCED_9_,3,X_INTRODUCED_79_):: defines_var(X_INTRODUCED_79_);
constraint int_eq_reif(X_INTRODUCED_10_,3,X_INTRODUCED_80_):: defines_var(X_INTRODUCED_80_);
constraint int_eq_reif(X_INTRODUCED_11_,3,X_INTRODUCED_81_):: defines_var(X_INTRODUCED_81_);
constraint int_eq_reif(X_INTRODUCED_1_,4,X_INTRODUCED_84_):: defines_var(X_INTRODUCED_84_);
constraint int_eq_reif(X_INTRODUCED_2_,4,X_INTRODUCED_85_):: defines_var(X_INTRODUCED_85_);
constraint int_eq_reif(X_INTRODUCED_3_,4,X_INTRODUCED_86_):: defines_var(X_INTRODUCED_86_);
constraint int_eq_reif(X_INTRODUCED_4_,4,X_INTRODUCED_87_):: defines_var(X_INTRODUCED_87_);
constraint int_eq_reif(X_INTRODUCED_5_,4,X_INTRODUCED_88_):: defines_var(X_INTRODUCED_88_);
constraint int_eq_reif(X_INTRODUCED_7_,4,X_INTRODUCED_90_):: defines_var(X_INTRODUCED_90_);
constraint int_eq_reif(X_INTRODUCED_8_,4,X_INTRODUCED_91_):: defines_var(X_INTRODUCED_91_);
constraint int_eq_reif(X_INTRODUCED_9_,4,X_INTRODUCED_92_):: defines_var(X_INTRODUCED_92_);
constraint int_eq_reif(X_INTRODUCED_10_,4,X_INTRODUCED_93_):: defines_var(X_INTRODUCED_93_);
constraint int_eq_reif(X_INTRODUCED_11_,4,X_INTRODUCED_94_):: defines_var(X_INTRODUCED_94_);
constraint int_eq_reif(X_INTRODUCED_1_,5,X_INTRODUCED_97_):: defines_var(X_INTRODUCED_97_);
constraint int_eq_reif(X_INTRODUCED_2_,5,X_INTRODUCED_98_):: defines_var(X_INTRODUCED_98_);
constraint int_eq_reif(X_INTRODUCED_3_,5,X_INTRODUCED_99_):: defines_var(X_INTRODUCED_99_);
constraint int_eq_reif(X_INTRODUCED_4_,5,X_INTRODUCED_100_):: defines_var(X_INTRODUCED_100_);
constraint int_eq_reif(X_INTRODUCED_5_,5,X_INTRODUCED_101_):: defines_var(X_INTRODUCED_101_);
constraint int_eq_reif(X_INTRODUCED_7_,5,X_INTRODUCED_103_):: defines_var(X_INTRODUCED_103_);
constraint int_eq_reif(X_INTRODUCED_8_,5,X_INTRODUCED_104_):: defines_var(X_INTRODUCED_104_);
constraint int_eq_reif(X_INTRODUCED_9_,5,X_INTRODUCED_105_):: defines_var(X_INTRODUCED_105_);
constraint int_eq_reif(X_INTRODUCED_10_,5,X_INTRODUCED_106_):: defines_var(X_INTRODUCED_106_);
constraint int_eq_reif(X_INTRODUCED_11_,5,X_INTRODUCED_107_):: defines_var(X_INTRODUCED_107_);
constraint int_eq_reif(X_INTRODUCED_1_,7,X_INTRODUCED_123_):: defines_var(X_INTRODUCED_123_);
constraint int_eq_reif(X_INTRODUCED_2_,7,X_INTRODUCED_124_):: defines_var(X_INTRODUCED_124_);
constraint int_eq_reif(X_INTRODUCED_3_,7,X_INTRODUCED_125_):: defines_var(X_INTRODUCED_125_);
constraint int_eq_reif(X_INTRODUCED_4_,7,X_INTRODUCED_126_):: defines_var(X_INTRODUCED_126_);
constraint int_eq_reif(X_INTRODUCED_5_,7,X_INTRODUCED_127_):: defines_var(X_INTRODUCED_127_);
constraint int_eq_reif(X_INTRODUCED_7_,7,X_INTRODUCED_129_):: defines_var(X_INTRODUCED_129_);
constraint int_eq_reif(X_INTRODUCED_8_,7,X_INTRODUCED_130_):: defines_var(X_INTRODUCED_130_);
constraint int_eq_reif(X_INTRODUCED_9_,7,X_INTRODUCED_131_):: defines_var(X_INTRODUCED_131_);
constraint int_eq_reif(X_INTRODUCED_10_,7,X_INTRODUCED_132_):: defines_var(X_INTRODUCED_132_);
constraint int_eq_reif(X_INTRODUCED_11_,7,X_INTRODUCED_133_):: defines_var(X_INTRODUCED_133_);
constraint int_eq_reif(X_INTRODUCED_1_,8,X_INTRODUCED_136_):: defines_var(X_INTRODUCED_136_);
constraint int_eq_reif(X_INTRODUCED_2_,8,X_INTRODUCED_137_):: defines_var(X_INTRODUCED_137_);
constraint int_eq_reif(X_INTRODUCED_3_,8,X_INTRODUCED_138_):: defines_var(X_INTRODUCED_138_);
constraint int_eq_reif(X_INTRODUCED_4_,8,X_INTRODUCED_139_):: defines_var(X_INTRODUCED_139_);
constraint int_eq_reif(X_INTRODUCED_5_,8,X_INTRODUCED_140_):: defines_var(X_INTRODUCED_140_);
constraint int_eq_reif(X_INTRODUCED_7_,8,X_INTRODUCED_142_):: defines_var(X_INTRODUCED_142_);
constraint int_eq_reif(X_INTRODUCED_8_,8,X_INTRODUCED_143_):: defines_var(X_INTRODUCED_143_);
constraint int_eq_reif(X_INTRODUCED_9_,8,X_INTRODUCED_144_):: defines_var(X_INTRODUCED_144_);
constraint int_eq_reif(X_INTRODUCED_10_,8,X_INTRODUCED_145_):: defines_var(X_INTRODUCED_145_);
constraint int_eq_reif(X_INTRODUCED_11_,8,X_INTRODUCED_146_):: defines_var(X_INTRODUCED_146_);
constraint int_eq_reif(X_INTRODUCED_1_,9,X_INTRODUCED_149_):: defines_var(X_INTRODUCED_149_);
constraint int_eq_reif(X_INTRODUCED_2_,9,X_INTRODUCED_150_):: defines_var(X_INTRODUCED_150_);
constraint int_eq_reif(X_INTRODUCED_3_,9,X_INTRODUCED_151_):: defines_var(X_INTRODUCED_151_);
constraint int_eq_reif(X_INTRODUCED_4_,9,X_INTRODUCED_152_):: defines_var(X_INTRODUCED_152_);
constraint int_eq_reif(X_INTRODUCED_5_,9,X_INTRODUCED_153_):: defines_var(X_INTRODUCED_153_);
constraint int_eq_reif(X_INTRODUCED_7_,9,X_INTRODUCED_155_):: defines_var(X_INTRODUCED_155_);
constraint int_eq_reif(X_INTRODUCED_8_,9,X_INTRODUCED_156_):: defines_var(X_INTRODUCED_156_);
constraint int_eq_reif(X_INTRODUCED_9_,9,X_INTRODUCED_157_):: defines_var(X_INTRODUCED_157_);
constraint int_eq_reif(X_INTRODUCED_10_,9,X_INTRODUCED_158_):: defines_var(X_INTRODUCED_158_);
constraint int_eq_reif(X_INTRODUCED_11_,9,X_INTRODUCED_159_):: defines_var(X_INTRODUCED_159_);
constraint int_eq_reif(X_INTRODUCED_1_,10,X_INTRODUCED_162_):: defines_var(X_INTRODUCED_162_);
constraint int_eq_reif(X_INTRODUCED_2_,10,X_INTRODUCED_163_):: defines_var(X_INTRODUCED_163_);
constraint int_eq_reif(X_INTRODUCED_3_,10,X_INTRODUCED_164_):: defines_var(X_INTRODUCED_164_);
constraint int_eq_reif(X_INTRODUCED_4_,10,X_INTRODUCED_165_):: defines_var(X_INTRODUCED_165_);
constraint int_eq_reif(X_INTRODUCED_5_,10,X_INTRODUCED_166_):: defines_var(X_INTRODUCED_166_);
constraint int_eq_reif(X_INTRODUCED_7_,10,X_INTRODUCED_168_):: defines_var(X_INTRODUCED_168_);
constraint int_eq_reif(X_INTRODUCED_8_,10,X_INTRODUCED_169_):: defines_var(X_INTRODUCED_169_);
constraint int_eq_reif(X_INTRODUCED_9_,10,X_INTRODUCED_170_):: defines_var(X_INTRODUCED_170_);
constraint int_eq_reif(X_INTRODUCED_10_,10,X_INTRODUCED_171_):: defines_var(X_INTRODUCED_171_);
constraint int_eq_reif(X_INTRODUCED_11_,10,X_INTRODUCED_172_):: defines_var(X_INTRODUCED_172_);
constraint int_eq_reif(1,Depot,X_INTRODUCED_176_):: defines_var(X_INTRODUCED_176_);
constraint int_le_reif(X_INTRODUCED_1_,5,X_INTRODUCED_177_):: defines_var(X_INTRODUCED_177_);
constraint int_eq_reif(X_INTRODUCED_1_,Depot,X_INTRODUCED_178_):: defines_var(X_INTRODUCED_178_);
constraint int_le_reif(X_INTRODUCED_2_,5,X_INTRODUCED_181_):: defines_var(X_INTRODUCED_181_);
constraint int_eq_reif(X_INTRODUCED_2_,Depot,X_INTRODUCED_182_):: defines_var(X_INTRODUCED_182_);
constraint int_le_reif(X_INTRODUCED_3_,5,X_INTRODUCED_185_):: defines_var(X_INTRODUCED_185_);
constraint int_eq_reif(X_INTRODUCED_3_,Depot,X_INTRODUCED_186_):: defines_var(X_INTRODUCED_186_);
constraint int_le_reif(X_INTRODUCED_4_,5,X_INTRODUCED_189_):: defines_var(X_INTRODUCED_189_);
constraint int_eq_reif(X_INTRODUCED_4_,Depot,X_INTRODUCED_190_):: defines_var(X_INTRODUCED_190_);
constraint int_le_reif(X_INTRODUCED_5_,5,X_INTRODUCED_193_):: defines_var(X_INTRODUCED_193_);
constraint int_eq_reif(X_INTRODUCED_5_,Depot,X_INTRODUCED_194_):: defines_var(X_INTRODUCED_194_);
constraint int_eq_reif(6,Depot,X_INTRODUCED_196_):: defines_var(X_INTRODUCED_196_);
constraint int_le_reif(6,X_INTRODUCED_7_,X_INTRODUCED_197_):: defines_var(X_INTRODUCED_197_);
constraint int_eq_reif(X_INTRODUCED_7_,Depot,X_INTRODUCED_198_):: defines_var(X_INTRODUCED_198_);
constraint int_le_reif(6,X_INTRODUCED_8_,X_INTRODUCED_201_):: defines_var(X_INTRODUCED_201_);
constraint int_eq_reif(X_INTRODUCED_8_,Depot,X_INTRODUCED_202_):: defines_var(X_INTRODUCED_202_);
constraint int_le_reif(6,X_INTRODUCED_9_,X_INTRODUCED_205_):: defines_var(X_INTRODUCED_205_);
constraint int_eq_reif(X_INTRODUCED_9_,Depot,X_INTRODUCED_206_):: defines_var(X_INTRODUCED_206_);
constraint int_le_reif(6,X_INTRODUCED_10_,X_INTRODUCED_209_):: defines_var(X_INTRODUCED_209_);
constraint int_eq_reif(X_INTRODUCED_10_,Depot,X_INTRODUCED_210_):: defines_var(X_INTRODUCED_210_);
constraint int_le_reif(6,X_INTRODUCED_11_,X_INTRODUCED_213_):: defines_var(X_INTRODUCED_213_);
constraint int_eq_reif(X_INTRODUCED_11_,Depot,X_INTRODUCED_214_):: defines_var(X_INTRODUCED_214_);
solve :: int_search(X_INTRODUCED_43_,first_fail,indomain,complete) minimize objective;
